problems/csplib-prob056/sonet-models/noch/O2/lingeling/model_7_1-s3ring15-solution000001.solution
language Essence 1.3

letting network be mset({}, {}, {1, 9, 11, 13}, {2, 3, 7, 10, 13}, {2, 5, 7, 9, 12}, {4, 5, 6, 11}, {4, 8, 10, 12, 13})
$ Here is a simple "visualisation" for the value above.
$ 
$ 
$  1  9 11 13
$  2  3  7 10 13
$  2  5  7  9 12
$  4  5  6 11
$  4  8 10 12 13

